language Essence 1.3

letting class be
        function(1 --> 2, 2 --> 5, 3 --> 9, 4 --> 2, 5 --> 6, 6 --> 3, 7 --> 7, 8 --> 2, 9 --> 6, 10 --> 8, 11 --> 4,
                 12 --> 8, 13 --> 9, 14 --> 1, 15 --> 2, 16 --> 3, 17 --> 5, 18 --> 8, 19 --> 4, 20 --> 3, 21 --> 7,
                 22 --> 3, 23 --> 8, 24 --> 9, 25 --> 4, 26 --> 1, 27 --> 6, 28 --> 2, 29 --> 7)
letting deck_length be 61
letting deck_width be 96
letting length be
        function(1 --> 54, 2 --> 17, 3 --> 29, 4 --> 53, 5 --> 38, 6 --> 46, 7 --> 41, 8 --> 53, 9 --> 44, 10 --> 32,
                 11 --> 15, 12 --> 19, 13 --> 20, 14 --> 55, 15 --> 22, 16 --> 29, 17 --> 34, 18 --> 39, 19 --> 3,
                 20 --> 12, 21 --> 29, 22 --> 15, 23 --> 5, 24 --> 12, 25 --> 24, 26 --> 13, 27 --> 1, 28 --> 26,
                 29 --> 34)
letting n_classes be 9
letting n_containers be 29
letting separation be function()
letting width be
        function(1 --> 3, 2 --> 1, 3 --> 1, 4 --> 1, 5 --> 1, 6 --> 5, 7 --> 1, 8 --> 33, 9 --> 1, 10 --> 1, 11 --> 1,
                 12 --> 1, 13 --> 1, 14 --> 52, 15 --> 1, 16 --> 2, 17 --> 1, 18 --> 2, 19 --> 2, 20 --> 1, 21 --> 1,
                 22 --> 1, 23 --> 1, 24 --> 1, 25 --> 1, 26 --> 1, 27 --> 3, 28 --> 1, 29 --> 1)
